MKP9 Results:
BPSO1 Results:
5466 5925 5925 5996 6444 6588 6588 6588 6588 6588 6588 6588 6588 6636 6636 6636 6636 6636 6636 6636 6636 6636 6636 6636 6636 6636 6636 6636 6636 6636 6636 6636 6636 6636 6636 6636 6636 6636 6636 6636
4850 5926 5926 6183 6449 7070 7070 7070 7070 7070 7070 7070 7070 7070 7070 7070 7070 7070 7070 7070 7070 7070 7070 7070 7070 7070 7070 7070 7070 7070 7070 7070 7070 7070 7070 7070 7070 7070 7070 7070
5186 5186 5713 5713 5713 5739 5739 5784 5784 5930 5930 5930 5930 5930 5930 5930 5930 5930 5930 6092 6092 6092 6092 6092 6092 6092 6092 6092 6092 6092 6092 6092 6092 6092 6092 6092 6092 6092 6092 6092
5540 5540 5608 5608 5608 6048 6048 6048 6125 6125 6125 6125 6125 6125 6125 6125 6125 6125 6125 6125 6125 6125 6125 6125 6125 6125 6125 6360 6360 6360 6360 6360 6360 6360 6360 6360 6360 6360 6360 6360
4903 5467 5760 5760 5941 5941 5941 5941 6051 6051 6569 6569 6569 6569 6569 6569 6980 6980 6980 6980 6980 6980 6980 6980 6980 6980 6980 6980 6980 6980 6980 6980 6980 6980 6980 6980 6980 6980 6980 6980
4228 4637 5852 6192 6192 6192 6192 6192 6192 6192 6192 6684 6684 6684 6684 6684 6684 6684 6684 6684 6684 6684 6684 6684 6684 6684 6684 6684 6684 6684 6684 6684 6684 6684 6684 6684 6684 6684 6684 6684
4479 5097 5928 6070 6070 6070 6113 6198 6198 6198 6376 6376 6376 6376 6376 6376 6376 6376 6376 6376 6376 6376 6397 6397 6397 6397 6397 6397 6397 6397 6397 6397 6397 6397 6397 6397 6397 6397 6397 6397
4987 5415 5856 5856 6467 6698 6698 6698 6698 6767 6767 6767 6767 6767 6767 6767 6767 6767 6767 6767 6767 6767 6767 6767 6767 6767 6767 6767 6767 6767 6767 6767 6767 6767 6767 6767 6767 6767 6767 6767
4028 5520 5520 5531 6199 6199 6199 6199 6199 6205 6205 6205 6205 6205 6205 6205 6205 6205 6205 6205 6205 6205 6205 6205 6205 6205 6205 6205 6205 6205 6205 6205 6205 6205 6205 6205 6205 6205 6205 6205
4482 5906 6208 6208 6208 6208 6281 6281 6281 6281 6373 6373 6373 6373 6373 6373 6373 6373 6373 6373 6373 6373 6373 6373 6373 6373 6373 6373 6373 6373 6373 6373 6373 6373 6373 6373 6373 6373 6373 6373
4917 5764 5764 5764 5968 6126 6126 6126 6582 6582 6582 6582 6582 6582 6582 6582 6582 6582 6582 6582 6582 6582 6582 6582 6582 6582 6582 6582 6582 6582 6582 6582 6582 6582 6582 6582 6582 6582 6582 6582
3993 5432 5432 6214 6667 6667 6667 6667 6667 6667 6667 6667 6759 6759 6759 6759 6759 6759 6759 6759 6759 6759 6759 6759 6759 6759 6759 6759 6759 6759 6759 6759 6759 6759 6759 6759 6759 6759 6759 6759
4719 5384 5384 5384 6349 6349 6349 6349 6349 6529 6529 6529 6841 6841 6841 6841 6841 6841 6841 6841 6841 6841 6841 6841 6841 6841 6841 6841 6841 6841 6841 6841 6841 6841 6841 6841 6841 6841 6841 6841
3798 5807 5807 6261 6261 6261 6261 6261 6261 6261 6261 6261 6261 6261 6261 6261 6261 6261 6261 6261 6261 6261 6261 6261 6261 6261 6261 6261 6261 6261 6261 6261 6261 6261 6261 6261 6261 6261 6261 6261
4190 5468 5517 5517 6400 6400 6400 7134 7134 7134 7134 7134 7134 7134 7134 7134 7134 7134 7134 7134 7134 7134 7134 7134 7134 7134 7134 7134 7134 7134 7134 7134 7134 7134 7134 7134 7134 7134 7134 7134
3936 5311 6302 6302 6302 6302 6302 6302 6302 6302 6302 6302 6302 6509 6509 6509 6509 6509 6509 6509 6509 6509 6509 6509 6509 6509 6509 6509 6509 6509 6509 6509 6509 6509 6509 6509 6509 6509 6509 6509
4500 6219 6219 6219 6219 6219 6219 6307 6307 6307 6307 6307 6307 6307 6307 6307 6307 6307 6307 6307 6307 6307 6307 6307 6307 6307 6307 6307 6307 6307 6307 6307 6307 6307 6307 6307 6307 6307 6307 6307
4354 4725 5969 5982 5982 6062 6110 6110 6457 6457 6457 6457 6457 6457 6457 6457 6457 6457 6457 6457 6457 6457 6457 6457 6457 6457 6457 6457 6457 6457 6457 6457 6457 6457 6457 6457 6457 6457 6457 6457
5175 5839 5839 5909 6142 6142 6142 6406 6406 6406 6406 6406 6406 6406 6406 6406 6645 6645 6645 6645 6645 6645 6645 6645 6645 6645 6645 6645 6645 6645 6645 6645 6645 6645 6645 6645 6645 6645 6645 6645
4697 5424 6145 6554 6940 6940 6940 6940 6940 6990 6990 6990 6990 6990 6990 6990 6990 6990 6990 6990 6990 6990 6990 6990 6990 6990 6990 6990 6990 6990 6990 6990 6990 6990 6990 6990 6990 6990 6990 6990
4214 4929 5441 6038 6038 6038 6038 6038 6741 6741 6741 6741 6741 6741 6741 6741 6741 6741 6741 6741 6741 6741 6741 6741 6741 6741 6741 6741 6741 6741 6741 6741 6741 6741 6741 6741 6741 6741 6741 6741
4202 5357 5357 5358 5384 5973 5973 6102 6102 6102 6102 6102 6102 6102 6102 6102 6102 6102 6102 6102 6102 6102 6102 6102 6102 6102 6102 6102 6102 6102 6102 6102 6102 6102 6102 6102 6102 6102 6102 6102
3615 5105 6022 6022 6700 6700 6700 6700 6700 6700 6700 6700 6700 6700 6700 6700 6700 6700 6700 6700 6700 6700 6700 6700 6700 6700 6700 6700 6700 6700 6700 6700 6700 6700 6700 6700 6700 6700 6700 6700
4589 4589 4907 5612 5809 6381 6381 6381 6381 6381 6381 6381 6381 6381 6381 6381 6381 6381 6381 6381 6381 6381 6381 6381 6381 6381 6381 6381 6381 6381 6381 6381 6381 6381 6381 6381 6381 6381 6381 6381
5025 5928 6210 6210 6210 6210 6210 6210 6558 6558 6558 6558 6558 6558 6558 6558 6558 6558 6558 6558 6558 6558 6558 6558 6558 6558 6558 6558 6558 6558 6558 6558 6558 6558 6558 6558 6558 6558 6558 6558
3985 5093 6057 6057 6057 6252 6252 6252 6252 6702 6702 6702 6702 6702 6702 6702 6702 6702 6702 6702 6702 6702 6702 6702 6702 6702 6702 6702 6702 6702 6702 6702 6702 6702 6702 6702 6702 6702 6702 6702
5283 5806 6789 6789 6789 6789 6789 6789 6789 6789 6789 6789 6789 6789 6789 6789 6789 6789 6789 6789 6789 6789 6789 6789 6789 6789 6789 6789 6789 6789 6789 6789 6789 6789 6789 6789 6789 6789 6789 6789
4645 5854 6036 6201 6433 6433 6433 6433 6433 6433 6433 6433 6433 6433 6433 6433 6433 6433 6433 6433 6433 6433 6433 6433 6433 6433 6433 6433 6433 6433 6433 6433 6433 6433 6433 6433 6433 6433 6433 6433
4314 6102 6102 6102 6102 6102 6102 6201 6201 6201 6201 6201 6201 6430 6430 6430 6430 6430 7014 7014 7014 7014 7014 7014 7014 7014 7014 7014 7014 7014 7014 7014 7014 7014 7014 7014 7014 7014 7014 7014
4380 5954 6373 6373 6489 6489 6684 6684 6684 6684 6684 6684 6684 6684 6684 6684 6684 6684 6684 6684 6684 6684 6684 6684 6684 6684 6684 6684 6684 6684 6684 6684 6684 6684 6684 6684 6684 6684 6684 6684

GA1 Results:
4750 6095 6565 7046 7046 7268 7346 7477 7477 7539 7641 7641 7641 7641 7641 7707 7707 7707 7735 7735 7735 7735 7735 7735 7741 7741 7741 7741 7741 7741 7741 7741 7741 7741 7741 7741 7741 7741 7741 7741
4134 5707 6295 6517 6920 7164 7280 7444 7444 7444 7712 7712 7712 7712 7712 7712 7733 7739 7741 7741 7741 7741 7741 7741 7741 7741 7741 7741 7741 7741 7741 7741 7741 7741 7741 7741 7741 7741 7741 7741
3659 5296 6459 6569 6915 7195 7195 7346 7374 7374 7467 7550 7550 7550 7619 7619 7619 7619 7706 7712 7712 7741 7741 7761 7761 7761 7761 7761 7761 7761 7761 7761 7761 7761 7761 7761 7761 7761 7761 7761
4831 6460 6563 7115 7115 7230 7427 7427 7427 7497 7497 7553 7576 7576 7593 7646 7646 7646 7662 7698 7698 7722 7723 7723 7723 7723 7723 7723 7723 7723 7723 7723 7723 7723 7723 7723 7723 7723 7723 7723
5555 6276 6306 7141 7192 7234 7383 7460 7536 7592 7592 7622 7622 7647 7670 7670 7670 7701 7711 7735 7735 7735 7735 7735 7735 7761 7761 7761 7761 7761 7761 7761 7761 7761 7761 7761 7761 7761 7761 7761
4180 5558 6109 6698 6950 7005 7438 7566 7566 7566 7566 7566 7566 7566 7566 7640 7640 7640 7651 7703 7726 7726 7741 7741 7741 7741 7741 7741 7741 7741 7741 7741 7741 7741 7741 7741 7741 7741 7741 7741
4799 5840 6599 6684 7086 7089 7329 7329 7329 7329 7329 7400 7400 7469 7499 7529 7529 7549 7549 7602 7605 7605 7674 7674 7674 7674 7701 7701 7706 7706 7706 7706 7706 7706 7706 7706 7706 7706 7706 7706
5138 5705 6010 6580 7250 7309 7492 7492 7492 7492 7492 7499 7554 7554 7582 7592 7616 7621 7659 7659 7659 7684 7734 7734 7761 7761 7761 7761 7761 7761 7761 7761 7761 7761 7761 7761 7761 7761 7761 7761
4698 6055 6328 7306 7306 7306 7306 7430 7477 7477 7590 7590 7590 7590 7649 7656 7656 7656 7656 7656 7668 7672 7689 7689 7689 7689 7689 7689 7689 7689 7689 7689 7725 7725 7725 7725 7725 7725 7725 7725
4789 5564 6114 6394 6789 6925 7049 7321 7439 7639 7639 7639 7639 7639 7639 7639 7639 7661 7668 7668 7668 7670 7672 7672 7708 7715 7715 7715 7715 7715 7715 7715 7715 7715 7715 7715 7715 7715 7715 7715
3702 5862 6610 6805 7209 7209 7300 7332 7410 7475 7564 7564 7570 7606 7606 7611 7677 7683 7705 7705 7725 7725 7725 7741 7741 7741 7741 7741 7741 7741 7741 7741 7741 7741 7741 7741 7741 7741 7741 7741
4088 6034 6688 6876 7199 7355 7426 7426 7480 7513 7517 7599 7599 7599 7599 7637 7691 7721 7721 7721 7721 7721 7721 7721 7721 7739 7739 7739 7739 7739 7758 7758 7758 7758 7758 7758 7758 7758 7758 7758
4040 5907 6426 6634 7095 7415 7490 7490 7498 7557 7559 7595 7595 7603 7611 7673 7673 7673 7690 7690 7719 7719 7719 7719 7719 7719 7719 7719 7719 7719 7719 7733 7733 7739 7739 7739 7741 7741 7741 7741
4765 6742 6742 7106 7106 7316 7316 7346 7428 7428 7428 7463 7548 7618 7618 7701 7701 7701 7710 7710 7725 7725 7725 7725 7772 7772 7772 7772 7772 7772 7772 7772 7772 7772 7772 7772 7772 7772 7772 7772
5124 5849 6556 6914 6948 7111 7340 7409 7497 7497 7497 7497 7497 7570 7634 7666 7666 7666 7666 7672 7672 7690 7707 7707 7707 7707 7707 7707 7707 7707 7707 7707 7707 7707 7707 7707 7707 7707 7707 7707
4972 6054 6599 7001 7416 7416 7416 7416 7419 7419 7534 7534 7534 7591 7591 7667 7667 7667 7667 7667 7723 7723 7723 7723 7723 7723 7723 7723 7723 7723 7723 7723 7723 7723 7723 7723 7723 7723 7723 7723
4268 5909 6355 7267 7267 7297 7483 7503 7503 7514 7580 7580 7596 7596 7640 7703 7705 7705 7710 7710 7726 7726 7726 7726 7726 7726 7726 7726 7726 7726 7726 7726 7726 7726 7726 7726 7726 7726 7726 7726
4951 5785 6130 6762 7024 7124 7357 7357 7429 7429 7429 7457 7457 7520 7545 7545 7545 7567 7569 7600 7606 7641 7641 7641 7641 7641 7641 7641 7641 7641 7641 7641 7641 7641 7641 7641 7641 7641 7641 7641
3627 5116 6128 6579 6579 6980 7440 7440 7440 7440 7482 7485 7485 7625 7625 7625 7625 7639 7674 7690 7690 7690 7690 7690 7690 7690 7690 7690 7690 7690 7690 7690 7690 7690 7690 7690 7690 7690 7690 7690
4761 6190 6709 6790 7033 7496 7496 7533 7533 7533 7533 7580 7662 7662 7662 7662 7662 7676 7676 7676 7676 7676 7676 7676 7677 7677 7677 7693 7693 7693 7758 7758 7758 7758 7758 7758 7758 7758 7758 7758
4622 6439 6565 6962 7269 7367 7367 7367 7658 7658 7658 7685 7691 7691 7691 7691 7691 7713 7713 7713 7741 7741 7741 7741 7741 7741 7741 7741 7741 7741 7741 7741 7741 7741 7741 7741 7741 7741 7741 7741
4240 6282 6614 7067 7067 7234 7239 7276 7383 7459 7501 7518 7575 7579 7596 7596 7609 7609 7634 7684 7684 7684 7684 7684 7723 7723 7723 7723 7723 7723 7723 7723 7723 7723 7723 7723 7723 7723 7723 7723
5004 6679 6679 7118 7118 7534 7617 7635 7635 7635 7635 7651 7701 7701 7701 7701 7708 7708 7708 7708 7734 7734 7734 7734 7734 7761 7761 7761 7761 7761 7761 7761 7761 7761 7761 7761 7761 7761 7761 7761
4328 5572 6107 6786 6923 7396 7396 7396 7396 7415 7417 7439 7493 7493 7515 7515 7521 7576 7576 7576 7621 7621 7672 7672 7672 7672 7672 7672 7672 7672 7672 7672 7672 7672 7672 7672 7672 7672 7672 7672
4215 5373 6069 6552 6737 6986 7025 7101 7234 7470 7526 7526 7574 7574 7574 7574 7641 7690 7719 7719 7719 7719 7723 7723 7723 7723 7723 7723 7723 7723 7723 7723 7723 7723 7723 7723 7723 7723 7723 7723
5581 5970 6923 7054 7054 7238 7464 7464 7464 7464 7592 7592 7592 7592 7592 7615 7651 7651 7699 7699 7701 7707 7707 7728 7734 7761 7761 7761 7761 7761 7761 7761 7761 7761 7761 7761 7761 7761 7761 7761
4699 6459 7095 7095 7224 7224 7351 7351 7366 7485 7573 7573 7627 7627 7634 7706 7719 7719 7719 7739 7739 7739 7739 7758 7758 7758 7758 7758 7758 7758 7758 7758 7758 7758 7758 7758 7758 7758 7758 7758
4071 6188 6558 6648 6846 7231 7261 7309 7372 7497 7497 7497 7497 7497 7587 7604 7739 7739 7739 7739 7739 7739 7739 7739 7739 7739 7739 7739 7739 7739 7739 7739 7739 7739 7758 7758 7758 7758 7758 7758
4346 5975 6046 6363 6579 6859 7128 7492 7492 7492 7532 7532 7532 7608 7608 7608 7614 7614 7619 7708 7708 7708 7758 7758 7758 7758 7758 7758 7758 7758 7758 7758 7758 7758 7758 7758 7758 7758 7758 7758
4684 6608 6608 6989 7265 7337 7369 7466 7466 7519 7519 7624 7624 7624 7624 7624 7624 7624 7673 7686 7699 7699 7699 7706 7707 7709 7709 7709 7709 7709 7709 7721 7721 7739 7739 7758 7758 7758 7758 7758

BPSO2 Results:
4317 5235 5806 6370 6370 6370 6370 6370 6385 6385 6711 6711 6711 6711 6711 6711 6711 6711 6711 6711 6711 6711 6711 6711 6711 6711 6711 6711 6711 6711 6711 6711 6711 6711 6711 6711 6711 6711 6711 6711
4471 4987 5073 5073 5383 5744 5744 5744 5744 5744 5744 5744 5744 5744 5744 5744 5744 5744 5744 5744 5744 5744 5744 5744 5744 5744 5744 5744 5744 5744 5744 5744 5744 5744 5744 5744 5744 5744 5744 5744
4442 4873 6315 6315 6315 6315 6315 6315 6315 6315 6315 6315 6315 6315 6315 6315 6315 6315 6315 6315 6315 6315 6315 6315 6315 6315 6315 6315 6315 6315 6315 6315 6315 6315 6315 6315 6315 6315 6315 6315
3688 5327 5327 5532 5532 5532 6384 6384 6384 6384 6384 6384 6384 6384 6384 6384 6384 6384 6384 6384 6384 6384 6384 6384 6384 6384 6384 6384 6384 6384 6384 6384 6384 6384 6384 6384 6384 6384 6384 6384
3944 5488 5653 6548 6548 6548 6548 6548 6548 6548 6548 6548 6548 6548 6548 6548 6548 6548 6548 6548 6548 6548 6548 6548 6548 6548 6548 6548 6548 6548 6548 6548 6548 6548 6548 6548 6548 6548 6548 6548
4056 5910 6028 6031 6031 6082 6130 6710 6710 6710 6710 7130 7130 7130 7130 7130 7130 7130 7130 7130 7130 7130 7130 7130 7130 7130 7130 7130 7130 7130 7130 7130 7130 7130 7130 7130 7130 7130 7130 7130
4408 5567 5567 5643 5643 6301 6301 6301 6301 6301 6301 6301 6301 6301 6355 6355 6355 6605 6605 6605 6605 6605 6605 6605 6605 6605 6605 6605 6605 6605 6605 6605 6605 6605 6605 6605 6605 6605 6605 6605
4504 5858 5858 5858 6390 6390 6390 6687 6687 6687 6687 6687 6687 6687 6687 6687 6687 6687 6687 6687 6687 6687 6687 6687 6687 6687 6687 6687 6687 6687 6687 6687 6687 6687 6687 6687 6687 6687 6687 6687
5137 5587 5708 5831 6292 6292 6292 6292 6292 6301 6431 6431 6431 6431 6431 6431 6431 6431 6431 6431 6431 6431 6431 6431 6431 6431 6431 6431 6431 6431 6431 6431 6431 6431 6431 6431 6431 6431 6431 6431
5471 5471 5747 5849 6439 6439 6439 6439 6439 6439 6439 6439 6439 6439 6439 6439 6439 6439 6439 6439 6439 6439 6439 6439 6439 6439 6439 6439 6439 6439 6439 6439 6439 6439 6439 6439 6439 6439 6439 6439
4548 6120 6523 6532 6768 6768 6768 6768 6768 6768 6768 6768 6925 6925 6925 6925 6925 6925 6925 6925 6925 6925 6925 6925 6925 6925 6925 6925 6925 6925 6925 6925 6925 6925 6925 6925 6925 6925 6925 6925
4484 5933 5933 6434 6434 6434 6434 6434 6434 6434 6434 6434 6434 6434 6434 6434 6434 6434 6434 6434 6434 6434 6434 6434 6434 6434 6434 6434 6434 6434 6434 6434 6434 6434 6434 6434 6434 6434 6434 6434
5406 5406 5694 6510 6510 6510 6734 7114 7114 7114 7114 7114 7114 7114 7114 7114 7114 7114 7114 7114 7114 7114 7114 7114 7114 7114 7114 7114 7114 7114 7114 7114 7114 7114 7114 7114 7114 7114 7114 7114
4323 4778 6448 6577 6577 6577 6577 7072 7072 7072 7072 7072 7072 7072 7072 7072 7072 7072 7072 7072 7072 7072 7072 7072 7072 7072 7072 7072 7072 7072 7072 7072 7072 7072 7072 7072 7072 7072 7072 7072
4422 5786 5786 5786 5956 5956 6134 7097 7097 7097 7097 7097 7097 7097 7097 7097 7097 7097 7097 7097 7097 7097 7097 7097 7097 7097 7097 7097 7097 7097 7097 7097 7097 7097 7097 7097 7097 7097 7097 7097
3822 5534 6335 6654 6654 6654 6654 6654 6654 6654 6654 6654 6654 6654 6654 6654 6654 6654 6654 6654 6654 6654 6654 6654 6654 6654 6654 6654 6654 6654 6654 6654 6654 6654 6654 6654 6654 6654 6654 6654
6563 6602 6602 6602 6685 6843 6843 6843 6843 6843 6843 6843 6843 6843 6843 6843 6843 6843 6843 6843 6843 6843 6843 6843 6843 6843 6843 6843 6843 6843 6843 6843 6843 6843 6843 6843 6843 6843 6843 6843
5970 5970 6885 6885 6885 6885 6885 6885 6885 6885 6885 6885 6885 6885 6885 6885 6885 6885 6885 6885 6885 6885 6885 6885 6885 6885 6885 6885 6885 6885 6885 6885 6885 6885 6885 6885 6885 6885 6885 6885
4493 5426 5559 6480 6480 6480 6480 6480 6480 6480 6787 6787 6787 6787 6787 6787 6787 6787 6787 6787 6787 6813 6813 6813 6813 6813 6813 6813 6813 6813 6813 6813 6813 6813 6813 6813 6813 6813 6813 6813
4060 5592 6345 6345 6345 6345 6345 6345 6345 6345 6345 6421 6421 6421 6421 6421 6421 6421 6421 6421 6421 6421 6421 6421 6421 6421 6421 6421 6421 6421 6421 6421 6421 6421 6421 6421 6480 6480 6480 6480
4640 5515 5658 6649 6738 6738 6738 6738 6738 6738 6738 6738 6738 6754 6754 6754 6754 6754 6754 6754 6754 6754 6754 6754 6754 6754 6776 6776 6776 6776 6776 6776 6776 6776 6776 6776 6776 6776 6776 6776
4309 5756 5756 5756 6302 6302 6302 6302 6302 6302 6302 6302 6302 6302 6302 6302 6302 6302 6302 6302 6302 6302 6302 6302 6302 6302 6302 6302 6302 6302 6302 6302 6302 6302 6302 6302 6302 6302 6302 6302
5641 6345 6345 6345 6373 6709 6709 6709 6709 6709 6709 6709 6709 6709 6709 6709 6709 6709 6709 6709 6709 6709 6709 6709 6709 6709 6709 6709 6709 6709 6709 6709 6709 6709 6709 6709 6709 6709 6709 6709
4297 4738 4830 5789 6764 6764 6764 6764 6764 6799 6799 6799 6799 6799 6799 6799 6799 6799 6799 6799 6799 6799 6799 6799 6799 6799 6799 6799 6799 6799 6799 6799 6799 6799 6799 6799 6799 6799 6799 6799
3885 6299 6914 6914 6914 6914 6914 6914 6914 6914 6914 6914 6914 6914 6914 6914 6914 6914 6914 6914 6914 6914 6914 6914 6914 6914 6914 6914 6914 6914 6914 6914 6914 6914 6914 6914 6914 6914 6914 6914
4558 5083 5261 5651 5794 5794 5794 6292 6292 6292 6318 6318 6318 6318 6376 6376 6376 6376 6376 6376 6376 6376 6376 6376 6376 6376 6376 6376 6376 6376 6376 6376 6376 6376 6376 6376 6376 6376 6376 6376
5043 5531 6069 6069 6607 6607 6607 6607 6607 7049 7049 7049 7049 7049 7049 7049 7049 7049 7049 7325 7325 7325 7325 7325 7325 7325 7325 7325 7325 7325 7325 7325 7325 7325 7325 7325 7325 7325 7325 7325
3748 5101 5610 6072 6072 6229 6428 6428 6428 6428 6428 6428 6428 6428 6428 6428 6428 6428 6428 6428 6428 6428 6428 6428 6428 6428 6428 6428 6428 6428 6428 6428 6428 6428 6428 6428 6428 6428 6428 6428
5346 5876 6395 6395 6395 6395 6908 6908 6908 6908 6908 6908 6908 6908 6908 6908 6908 6908 6908 6908 6908 6908 6908 6908 6908 6908 6908 6908 6908 6908 6908 6908 6908 6908 6908 6908 6908 6908 6908 6908
3758 4896 5445 5445 5445 6047 6205 6205 6493 6493 6555 6555 6555 6555 6555 6555 6873 6873 6873 6873 6873 6873 6873 6873 6873 6873 6873 6873 6873 6873 6873 6873 6873 6873 6873 6873 6873 6873 6873 6873

GA2 Results:
5578 5591 5591 6459 6760 7222 7222 7424 7487 7487 7536 7536 7536 7536 7536 7565 7582 7593 7593 7593 7655 7711 7711 7711 7711 7711 7711 7711 7711 7711 7711 7711 7711 7711 7711 7711 7711 7711 7711 7711
4639 6120 6120 6392 6657 6700 6700 6743 7206 7272 7341 7341 7341 7341 7406 7442 7494 7494 7494 7494 7529 7529 7564 7566 7669 7676 7676 7676 7676 7676 7676 7676 7706 7706 7706 7706 7706 7706 7706 7706
4794 5714 5960 6311 6350 6366 6453 7013 7315 7315 7315 7315 7423 7423 7426 7521 7521 7530 7530 7563 7582 7624 7663 7672 7672 7672 7672 7672 7672 7672 7672 7690 7690 7690 7690 7690 7690 7690 7690 7690
5243 5649 6283 6283 6403 6431 6894 6894 6971 6971 7252 7252 7252 7252 7468 7468 7625 7625 7625 7625 7625 7625 7625 7625 7625 7625 7625 7625 7625 7625 7625 7625 7625 7625 7625 7625 7625 7625 7625 7625
5287 5629 5830 6043 6192 6360 6387 6660 6722 7073 7143 7372 7372 7409 7490 7490 7490 7490 7490 7576 7576 7576 7576 7576 7576 7576 7576 7576 7576 7576 7576 7576 7576 7576 7576 7576 7576 7587 7587 7587
4712 5270 6051 6051 6372 6372 6784 6784 6786 6964 7087 7087 7555 7555 7563 7563 7563 7563 7563 7563 7563 7563 7563 7563 7563 7563 7563 7563 7563 7563 7563 7563 7563 7563 7563 7563 7563 7563 7563 7563
4925 5944 5944 6315 6362 6873 6873 7334 7340 7340 7340 7340 7340 7340 7576 7576 7576 7576 7576 7576 7599 7618 7618 7618 7618 7618 7618 7618 7618 7618 7618 7618 7735 7741 7741 7741 7741 7741 7741 7741
5287 6730 6730 6836 6877 6903 6903 6903 6903 7298 7298 7298 7328 7517 7517 7517 7581 7679 7679 7679 7680 7680 7680 7680 7680 7680 7680 7680 7680 7680 7680 7680 7680 7680 7680 7680 7680 7680 7680 7680
5562 6184 6184 6184 6478 6919 6919 7109 7395 7465 7465 7465 7657 7657 7657 7657 7726 7726 7726 7726 7726 7726 7726 7726 7726 7726 7726 7726 7726 7726 7726 7726 7726 7726 7726 7726 7741 7741 7741 7741
5069 5069 5717 5867 6272 6589 7157 7157 7224 7224 7224 7233 7434 7571 7571 7571 7571 7621 7621 7630 7630 7630 7646 7728 7761 7761 7761 7761 7761 7761 7761 7761 7761 7761 7761 7761 7761 7761 7761 7761
5484 5484 6166 6203 6209 6614 6833 6969 7339 7339 7339 7495 7495 7495 7495 7495 7495 7495 7516 7566 7632 7632 7632 7632 7632 7632 7632 7632 7632 7632 7632 7632 7632 7632 7632 7632 7738 7738 7738 7738
5913 5913 6508 7268 7268 7268 7268 7268 7268 7268 7268 7268 7268 7327 7378 7610 7610 7658 7707 7734 7761 7761 7761 7761 7761 7761 7761 7761 7761 7761 7761 7761 7761 7761 7761 7761 7761 7761 7761 7761
5725 5725 6332 6518 6746 6923 7011 7011 7011 7186 7186 7186 7186 7516 7593 7620 7620 7620 7620 7620 7620 7620 7620 7620 7620 7620 7620 7620 7620 7620 7620 7620 7620 7620 7620 7620 7620 7620 7620 7620
6016 6016 6125 7185 7185 7240 7296 7296 7327 7327 7327 7327 7327 7327 7327 7402 7404 7455 7472 7619 7619 7619 7619 7619 7619 7624 7624 7624 7624 7624 7624 7624 7684 7684 7684 7684 7684 7695 7695 7706
5027 6728 6728 6728 6728 6821 6919 6986 7248 7396 7396 7396 7396 7416 7510 7510 7547 7547 7547 7547 7547 7664 7664 7664 7684 7772 7772 7772 7772 7772 7772 7772 7772 7772 7772 7772 7772 7772 7772 7772
5398 5790 6278 6311 6633 6701 6707 6707 6707 6924 7140 7400 7400 7400 7421 7421 7421 7547 7547 7547 7563 7597 7609 7609 7620 7620 7620 7620 7620 7620 7620 7620 7620 7620 7620 7620 7620 7620 7620 7620
4781 5815 5825 6113 6539 6539 6932 7121 7121 7497 7497 7497 7590 7590 7590 7590 7590 7590 7644 7663 7663 7741 7741 7741 7741 7741 7741 7741 7741 7741 7741 7741 7741 7741 7741 7741 7741 7741 7741 7741
6114 6488 6639 6988 7078 7184 7184 7184 7297 7297 7312 7312 7418 7425 7652 7652 7652 7652 7652 7679 7679 7679 7741 7741 7741 7741 7741 7741 7741 7741 7741 7741 7741 7741 7741 7741 7741 7741 7741 7741
5765 5827 5959 6895 6895 6904 6904 6904 6973 7107 7145 7151 7151 7151 7151 7264 7264 7264 7264 7264 7435 7485 7548 7548 7595 7602 7602 7602 7602 7602 7602 7602 7602 7602 7602 7602 7602 7602 7602 7602
5411 6123 6123 6283 6668 7181 7181 7181 7181 7181 7194 7194 7236 7236 7293 7299 7299 7303 7305 7305 7350 7359 7359 7359 7359 7359 7359 7359 7359 7359 7364 7364 7364 7364 7379 7379 7379 7379 7379 7379
5280 6313 6622 6668 6668 6895 6895 7095 7095 7095 7095 7162 7162 7162 7162 7168 7196 7196 7196 7196 7196 7196 7196 7196 7196 7196 7196 7196 7196 7196 7196 7196 7196 7196 7196 7196 7196 7196 7196 7196
5565 5905 6003 6038 6777 6866 6866 6906 6941 6941 7162 7162 7162 7162 7162 7162 7337 7337 7480 7480 7480 7532 7597 7739 7739 7739 7739 7739 7739 7739 7739 7739 7739 7739 7739 7739 7739 7739 7739 7741
4869 6101 6222 6305 6821 6890 6933 6933 7085 7092 7098 7454 7461 7461 7461 7505 7505 7517 7517 7576 7576 7594 7704 7711 7711 7711 7711 7711 7711 7711 7711 7711 7711 7711 7711 7711 7711 7711 7711 7711
5418 5536 6856 6889 7223 7223 7223 7223 7439 7439 7439 7439 7439 7439 7529 7529 7543 7552 7603 7603 7603 7603 7603 7603 7603 7603 7603 7603 7603 7603 7603 7603 7603 7603 7603 7603 7603 7603 7603 7603
5605 6189 6189 6429 6705 6778 7345 7345 7345 7345 7345 7419 7466 7525 7525 7569 7569 7569 7590 7607 7631 7631 7634 7634 7634 7634 7634 7634 7634 7634 7634 7634 7634 7634 7634 7634 7634 7634 7634 7634
4913 6088 6158 6247 6247 6819 6819 6826 6826 7240 7281 7281 7311 7496 7496 7525 7541 7541 7541 7576 7587 7587 7587 7587 7587 7601 7601 7601 7601 7601 7601 7601 7601 7601 7601 7601 7601 7601 7601 7640
5735 5735 6283 6283 6283 6320 6320 6863 6884 6884 6884 6946 7325 7325 7325 7325 7325 7352 7391 7391 7444 7519 7583 7583 7614 7621 7621 7621 7621 7621 7621 7621 7621 7621 7621 7621 7621 7621 7621 7621
5744 6113 6340 6615 6716 6771 7111 7144 7208 7208 7399 7399 7474 7594 7594 7594 7594 7624 7707 7711 7711 7711 7711 7711 7711 7711 7711 7711 7711 7711 7711 7711 7711 7711 7711 7711 7711 7711 7711 7711
5894 5894 6592 6592 6592 6971 7010 7441 7527 7527 7527 7544 7561 7561 7561 7584 7584 7584 7584 7584 7584 7584 7625 7625 7625 7625 7625 7625 7625 7625 7625 7625 7625 7625 7625 7625 7625 7625 7625 7625
5376 5810 6287 6324 7138 7138 7138 7138 7138 7273 7322 7322 7322 7322 7322 7339 7345 7407 7407 7604 7604 7606 7646 7672 7672 7672 7672 7672 7672 7672 7672 7672 7672 7672 7672 7672 7672 7690 7690 7690

BPSO3 Results:
3434 4868 5892 5892 5892 6145 6145 6145 6145 6145 6145 6145 6145 6145 6145 6145 6145 6145 6145 6145 6145 6145 6145 6145 6145 6145 6145 6145 6145 6145 6145 6145 6145 6145 6145 6145 6145 6145 6145 6145
4121 4425 5882 5882 5882 5882 5892 5892 6005 6248 6248 6248 6248 6248 6248 6248 6248 6248 6248 6248 6248 6248 6568 6568 6568 6568 6568 6568 6568 6568 6568 6568 6568 6568 6568 6568 6568 6568 6568 6568
5040 5338 5429 5646 5646 5646 5646 6140 6140 6140 6140 6140 6140 6140 6140 6140 6140 6140 6140 6140 6140 6140 6140 6140 6140 6140 6140 6140 6140 6140 6140 6140 6140 6140 6140 6140 6140 6140 6140 6140
3357 3645 5199 6108 6394 6394 6394 6394 6394 6394 6394 6394 6394 6394 6394 6394 6718 6718 6718 6718 6718 6718 6718 6718 6718 6718 6718 6718 6718 6718 6718 6718 6718 6718 6718 6718 6718 6718 6718 6718
4987 4987 5017 5017 5390 5801 5801 5801 6021 6021 6021 6021 6021 6021 6021 6021 6021 6262 6262 6262 6262 6262 6262 6262 6262 6262 6262 6262 6262 6262 6262 6262 6262 6262 6262 6262 6262 6262 6262 6262
3988 4200 4200 5564 5564 5660 5660 5992 5992 5992 5992 6031 6031 6031 6031 6031 6031 6031 6031 6031 6031 6031 6031 6031 6031 6031 6031 6031 6031 6031 6031 6031 6031 6031 6031 6031 6031 6031 6031 6031
4120 4279 4883 5277 5470 5470 5470 5810 5960 5960 5960 5960 6260 6260 6260 6260 6260 6260 6260 6260 6260 6260 6260 6260 6260 6260 6260 6260 6260 6260 6260 6260 6260 6260 6260 6260 6260 6260 6260 6260
4124 5131 5131 5823 5823 5823 6457 6457 6457 6457 6457 6457 6457 6457 6457 6457 6457 6457 6457 6457 6457 6457 6457 6457 6457 6457 6457 6457 6457 6457 6457 6457 6457 6457 6457 6457 6457 6457 6457 6457
3793 4393 5581 5581 5720 5897 5897 5897 5897 5917 5917 5917 5917 5917 5917 5917 5917 5917 5917 5917 5917 5917 5917 5917 5917 5917 5917 5917 5917 5917 5917 5917 5917 5917 5917 5917 5917 5917 5917 5917
2506 3733 5421 5421 5589 5589 5589 5676 5676 5676 5676 5956 5956 5956 5956 5956 5956 5956 5956 5956 6511 6511 6511 6511 6511 6511 6511 6511 6511 6511 6511 6511 6511 6511 6511 6511 6511 6511 6511 6511
2378 4411 5102 5102 5199 6077 6077 6077 6077 6077 6077 6077 6077 6077 6587 6587 6587 6587 6587 6587 6587 6587 6587 6587 6587 6587 6587 6587 6587 6587 6587 6587 6587 6587 6587 6587 6587 6587 6587 6587
5372 5407 5407 5407 5407 5407 5407 5407 5758 5846 5846 5846 6068 6068 6115 6115 6115 6115 6115 6115 6115 6115 6115 6115 6115 6115 6115 6129 6129 6129 6129 6129 6129 6129 6129 6129 6129 6129 6129 6129
3239 3823 4434 4449 5879 5879 5879 5879 5879 5879 5879 5879 5879 5879 5879 5879 5879 5879 5879 5879 5879 5879 5879 5879 5879 5879 5879 5879 5879 5879 5879 5879 5879 5879 5879 5879 5879 5879 5879 5879
2999 4852 4852 4897 5232 6195 6556 6556 6556 6556 6556 6556 6556 6556 6556 6556 6556 6556 6556 6556 6556 6556 6556 6556 6556 6556 6556 6556 6556 6556 6556 6556 6556 6556 6556 6556 6556 6556 6556 6556
4413 5323 5551 5551 5551 5551 6356 6356 6484 6484 6817 6817 6817 6817 6817 6817 6817 6817 6817 6817 6817 6817 6817 6817 6817 6817 6817 6817 6817 6817 6817 6817 6817 6817 6817 6817 6817 6817 6817 6817
4647 4647 4797 5786 5786 5966 5966 5966 5966 5966 5966 5966 5966 5966 5966 5966 5966 5966 5966 6301 6301 6301 6301 6301 6301 6301 6301 6301 6301 6301 6301 6301 6301 6301 6301 6301 6301 6301 6301 6301
3286 4775 4922 4922 4922 4922 5130 5130 5130 5338 5338 5338 5338 5338 5338 5959 6127 6127 6127 6127 6127 6127 6127 6127 6127 6127 6127 6127 6127 6127 6127 6127 6127 6127 6127 6127 6127 6127 6127 6127
3495 5633 5633 5633 5633 5633 5633 5718 6139 6139 6286 6286 6286 6286 6286 6286 6286 6568 6568 6568 6568 6568 6568 6568 6568 6568 6568 6568 6568 6568 6568 6568 6568 6568 6568 6568 6568 6568 6568 6568
3593 5305 5746 5911 5911 5911 6181 6181 6181 6181 6181 6181 6181 6181 6181 6181 6181 6181 6181 6181 6181 6181 6181 6181 6181 6181 6181 6337 6337 6337 6337 6337 6337 6337 6337 6337 6337 6337 6337 6337
3018 4848 4848 4848 5249 5513 5876 5876 5876 5876 5876 5876 5876 5876 5876 5876 6483 6483 6483 6483 6483 6483 6483 6483 6483 6483 6483 6483 6483 6483 6483 6483 6483 6483 6483 6483 6483 6483 6483 6483
4821 4941 4941 5227 5766 5766 5766 5766 5791 5791 5791 5791 5791 5791 5791 5791 5791 5791 5791 5791 5791 5791 5791 5791 5791 5791 5791 5791 5791 5791 5791 5791 5791 5791 5791 5791 5791 5791 5791 5791
3057 4844 4989 5082 5677 5677 5872 5872 5872 5872 5872 5872 6437 6437 6437 6437 6437 6437 6437 6437 6437 6437 6437 6437 6437 6437 6437 6437 6437 6437 6437 6437 6437 6437 6437 6437 6437 6437 6437 6437
4226 4736 4736 4736 5049 5049 5062 5062 5062 5062 5062 5336 5336 5336 5336 5336 5336 5336 5336 5336 5336 5671 5671 5671 5671 5671 5671 5671 5671 5671 5671 5671 5671 5671 5671 5671 5671 5671 5671 5671
3468 4143 5216 6015 6015 6015 6015 6015 6015 6015 6015 6015 6015 6015 6015 6015 6015 6015 6015 6015 6015 6015 6015 6015 6015 6015 6015 6015 6015 6015 6015 6015 6015 6015 6015 6015 6015 6015 6015 6015
4056 4841 5281 6204 6204 6204 6204 6204 6204 6204 6204 6204 6204 6367 6367 6367 6367 6367 6367 6367 6367 6367 6367 6367 6367 6367 6367 6367 6367 6367 6367 6367 6367 6367 6367 6367 6367 6367 6367 6367
3359 4703 5603 5603 5721 6061 6061 6061 6061 6061 6061 6061 6061 6061 6061 6061 6061 6061 6061 6061 6061 6061 6061 6061 6061 6061 6061 6061 6061 6061 6061 6061 6061 6061 6061 6061 6061 6061 6061 6061
3232 4181 5292 5971 5971 5971 5971 5971 6425 6425 6425 6425 6425 6425 6425 6425 6425 6425 6425 6425 6425 6425 6425 6425 6425 6425 6425 6425 6425 6425 6425 6425 6425 6425 6425 6425 6425 6425 6425 6425
2754 3523 5022 5498 5547 5619 5995 5995 5995 5995 5995 5995 5995 5995 5995 5995 5995 5995 5995 5995 6057 6057 6057 6057 6057 6057 6057 6057 6057 6057 6057 6057 6057 6057 6057 6057 6057 6057 6057 6057
5115 5115 5549 5651 5651 5651 5651 5764 5764 5764 5764 5764 5764 5768 5768 5768 5768 5768 5768 5768 6314 6314 6314 6314 6314 6314 6314 6314 6314 6314 6314 6314 6314 6314 6314 6314 6314 6314 6314 6314
3326 3965 5520 5520 5520 5861 5861 6147 6147 6147 6147 6147 6147 6147 6147 6147 6147 6147 6147 6147 6147 6147 6147 6147 6147 6147 6147 6147 6147 6147 6147 6147 6147 6147 6147 6147 6147 6147 6147 6147

GA3 Results:
4185 5776 6396 7010 7119 7203 7481 7481 7523 7523 7523 7523 7523 7523 7523 7523 7592 7592 7592 7592 7592 7592 7592 7592 7592 7592 7592 7595 7595 7595 7595 7595 7612 7612 7612 7612 7612 7612 7612 7612
4874 6120 6202 7035 7097 7243 7368 7368 7368 7368 7388 7388 7388 7390 7390 7444 7602 7602 7602 7602 7602 7602 7602 7602 7602 7602 7602 7602 7602 7602 7627 7644 7644 7644 7644 7644 7644 7644 7644 7648
3425 5397 6353 6544 7092 7092 7208 7477 7477 7477 7490 7490 7547 7547 7547 7547 7632 7632 7632 7632 7632 7632 7632 7632 7632 7632 7632 7632 7632 7632 7632 7632 7632 7632 7632 7632 7632 7632 7632 7643
4618 5496 6011 6428 6730 6777 7258 7258 7345 7345 7345 7359 7388 7422 7422 7422 7422 7422 7551 7551 7551 7551 7551 7551 7586 7586 7586 7586 7586 7636 7636 7636 7636 7636 7636 7636 7636 7636 7636 7636
2590 5478 6738 7145 7145 7258 7258 7258 7392 7392 7392 7392 7418 7521 7521 7529 7529 7529 7529 7529 7529 7529 7529 7568 7568 7568 7568 7568 7568 7568 7568 7568 7568 7568 7568 7585 7585 7585 7614 7614
4635 5964 6619 7103 7103 7103 7151 7158 7414 7414 7574 7574 7574 7606 7606 7606 7606 7606 7606 7606 7606 7606 7606 7606 7606 7606 7626 7626 7626 7626 7626 7626 7626 7626 7626 7636 7656 7656 7656 7670
5378 5754 7089 7235 7235 7235 7390 7396 7396 7396 7396 7433 7433 7520 7520 7520 7520 7520 7520 7603 7626 7626 7626 7626 7626 7626 7674 7674 7674 7674 7674 7678 7678 7678 7678 7678 7678 7678 7678 7678
3287 5261 5819 6679 7125 7222 7250 7348 7348 7373 7390 7481 7481 7481 7481 7492 7492 7492 7492 7493 7493 7509 7509 7509 7530 7533 7565 7565 7565 7565 7565 7565 7565 7583 7583 7583 7628 7628 7639 7639
4168 5987 6367 6450 6746 6973 7167 7306 7306 7317 7317 7376 7376 7376 7376 7484 7484 7484 7505 7505 7505 7505 7529 7529 7529 7529 7546 7546 7546 7546 7581 7581 7581 7581 7581 7581 7632 7632 7632 7632
4678 4980 6344 6590 6899 7253 7253 7253 7332 7332 7332 7332 7381 7381 7489 7489 7489 7489 7489 7489 7489 7490 7490 7490 7490 7490 7490 7490 7493 7493 7493 7493 7533 7533 7533 7533 7533 7533 7533 7592
4580 5301 6349 7186 7186 7285 7304 7406 7416 7416 7416 7416 7416 7416 7535 7535 7535 7535 7535 7535 7535 7557 7557 7557 7557 7557 7557 7557 7611 7611 7652 7652 7652 7652 7652 7652 7652 7652 7652 7652
4582 5966 6023 6023 6845 6965 7056 7279 7279 7378 7378 7378 7426 7440 7510 7510 7510 7550 7578 7578 7578 7578 7578 7578 7578 7578 7582 7582 7619 7638 7638 7648 7648 7648 7648 7648 7648 7648 7648 7648
3956 5424 6709 6709 6862 7319 7319 7319 7360 7408 7408 7408 7408 7433 7441 7447 7448 7448 7448 7460 7460 7541 7541 7541 7541 7541 7541 7541 7541 7541 7568 7568 7568 7568 7568 7568 7568 7570 7577 7577
3976 5632 7082 7082 7082 7082 7082 7082 7352 7352 7352 7352 7381 7381 7381 7381 7381 7381 7381 7394 7442 7442 7466 7479 7487 7650 7650 7650 7650 7650 7650 7650 7663 7663 7663 7663 7663 7663 7663 7663
4898 6130 6581 6872 7002 7077 7359 7359 7359 7359 7359 7497 7497 7497 7497 7497 7497 7497 7497 7497 7497 7497 7497 7497 7497 7497 7497 7553 7553 7553 7553 7553 7553 7553 7572 7572 7572 7572 7572 7583
4369 5493 5969 6834 7014 7060 7146 7374 7374 7374 7374 7374 7457 7457 7460 7460 7475 7475 7475 7564 7564 7564 7564 7623 7623 7623 7633 7633 7633 7633 7650 7650 7650 7650 7650 7650 7690 7690 7690 7690
3512 6602 6833 7211 7356 7356 7356 7356 7386 7486 7486 7486 7486 7486 7621 7621 7621 7621 7621 7621 7621 7621 7621 7621 7621 7621 7621 7621 7621 7621 7621 7621 7651 7707 7707 7707 7707 7707 7707 7707
3801 5384 6396 6754 6924 7091 7091 7177 7177 7271 7286 7453 7453 7453 7453 7469 7469 7469 7469 7469 7511 7552 7552 7565 7565 7583 7583 7583 7583 7583 7583 7602 7602 7602 7602 7602 7628 7628 7628 7628
4280 5483 5741 6507 6769 6986 6986 7110 7176 7386 7386 7386 7386 7386 7468 7468 7468 7468 7468 7468 7468 7468 7528 7528 7528 7528 7528 7528 7532 7563 7607 7607 7607 7607 7607 7654 7654 7654 7654 7654
3599 5562 5873 6439 6439 6964 7039 7039 7055 7245 7250 7289 7317 7367 7571 7571 7571 7571 7571 7571 7575 7575 7575 7575 7590 7590 7668 7668 7668 7668 7668 7668 7668 7668 7668 7668 7668 7668 7668 7668
4057 5659 6122 6823 6906 7323 7323 7418 7487 7487 7487 7542 7542 7561 7572 7589 7589 7589 7589 7589 7589 7728 7728 7728 7728 7728 7728 7728 7728 7728 7728 7728 7728 7728 7728 7728 7728 7728 7728 7728
4025 5440 6378 6618 6851 7151 7181 7181 7401 7401 7426 7524 7524 7524 7524 7524 7576 7576 7576 7576 7576 7576 7576 7576 7576 7576 7593 7593 7593 7593 7618 7618 7618 7618 7651 7651 7651 7651 7651 7651
3780 6061 6061 6394 6654 6998 7003 7003 7182 7279 7279 7282 7318 7431 7431 7431 7439 7439 7439 7439 7439 7486 7486 7486 7486 7486 7486 7564 7564 7564 7564 7564 7564 7564 7564 7594 7594 7627 7627 7627
3319 5701 6305 7211 7211 7297 7297 7297 7451 7451 7451 7451 7451 7451 7451 7451 7451 7451 7451 7451 7457 7457 7518 7518 7518 7518 7518 7518 7518 7518 7518 7554 7560 7560 7560 7560 7575 7575 7575 7575
4403 6327 6327 6536 6786 6984 7234 7234 7234 7234 7269 7380 7380 7494 7494 7494 7494 7494 7494 7530 7530 7530 7530 7530 7530 7530 7530 7532 7532 7532 7532 7612 7612 7612 7645 7645 7645 7645 7645 7645
5128 5230 7074 7253 7261 7306 7352 7440 7440 7440 7476 7476 7476 7476 7476 7497 7497 7497 7538 7591 7591 7591 7591 7591 7591 7591 7635 7635 7635 7635 7635 7635 7635 7672 7672 7672 7672 7672 7672 7672
4182 5402 6214 6463 7108 7108 7108 7108 7108 7281 7423 7423 7423 7423 7459 7459 7459 7459 7459 7496 7526 7526 7526 7526 7526 7526 7526 7561 7561 7561 7562 7562 7562 7562 7562 7635 7635 7635 7635 7635
3808 4926 5443 6546 6546 7297 7297 7297 7320 7452 7452 7477 7477 7529 7529 7529 7529 7529 7548 7548 7548 7548 7562 7592 7592 7592 7592 7600 7600 7601 7601 7601 7610 7621 7621 7621 7621 7621 7632 7632
3612 4955 6137 6472 6591 6902 6902 7110 7110 7332 7332 7361 7361 7361 7361 7436 7436 7436 7469 7469 7469 7515 7515 7515 7544 7544 7637 7637 7637 7637 7637 7637 7637 7637 7637 7669 7669 7669 7691 7691
3698 5812 6610 6959 6959 6959 7190 7494 7494 7494 7494 7494 7494 7494 7494 7494 7494 7538 7545 7545 7545 7545 7545 7545 7545 7545 7581 7581 7581 7581 7581 7581 7581 7581 7621 7626 7626 7676 7676 7676

